# Solution for model qis_1000_800_398
# Objective value = 3.0533259490466253e+02
x[0] 0
x[1] 0
x[2] 0
x[3] 0
x[4] 0
x[5] 0
x[6] -1.5460149726050575e-07
x[7] 1.0000002026619379e+00
x[8] 1
x[9] 0
x[10] 9.9999990184704757e-01
x[11] 0
x[12] 1
x[13] 9.9999974399740532e-01
x[14] 0
x[15] 0
x[16] 1
x[17] 1
x[18] 1
x[19] 1
x[20] 0
x[21] 9.9999967279280144e-01
x[22] -1.9949870383275633e-07
x[23] 0
x[24] 1
x[25] 0
x[26] 1
x[27] 0
x[28] 0
x[29] 0
x[30] 0
x[31] 0
x[32] 1
x[33] 1
x[34] 1
x[35] 1.4232634916848798e-07
x[36] 0
x[37] 1
x[38] 1.0000000498592510e+00
x[39] 9.9999974399740543e-01
x[40] 1.0000000841396759e+00
x[41] 0
x[42] 0
x[43] 0
x[44] 0
x[45] 0
x[46] 0
x[47] 1.0000004056108636e+00
x[48] 0
x[49] 0
x[50] 9.9999998966387360e-01
x[51] 1.0000000791345121e+00
x[52] 1
x[53] 0
x[54] 0
x[55] 0
x[56] 0
x[57] 0
x[58] 9.9999963250169455e-01
x[59] 0
x[60] 9.9999985215978282e-01
x[61] 1
x[62] -1.5978777812009071e-07
x[63] 2.6096646006739720e-07
x[64] 0
x[65] 2.6092997897315294e-07
x[66] 1.5113665672727367e-07
x[67] 0
x[68] 2.6095940584079623e-07
x[69] 0
x[70] 1.0000001597507961e+00
x[71] 1
x[72] 1.0000002027183961e+00
x[73] 0
x[74] 0
x[75] 1.42300636215287e-07
x[76] 0
x[77] 1
x[78] 0
x[79] 0
x[80] 0
x[81] 0
x[82] 0
x[83] 1.0117414105629385e-07
x[84] 1
x[85] 0
x[86] 1
x[87] 0
x[88] 1
x[89] 1
x[90] 1
x[91] 1
x[92] 5.2188340469580027e-07
x[93] 1
x[94] 1
x[95] 9.9999989878518458e-01
x[96] -7.9164733879366622e-08
x[97] 1
x[98] 0
x[99] 0
x[100] 1
x[101] 0
x[102] 1
x[103] 2.6081304586723680e-07
x[104] 9.9999973899740535e-01
x[105] 1
x[106] -2.4826590677531309e-07
x[107] 1
x[108] 1
x[109] 0
x[110] 0
x[111] 1
x[112] 1
x[113] 1.0000003035918446e+00
x[114] 0
x[115] 0
x[116] 0
x[117] 9.9999940202295790e-01
x[118] 1
x[119] 2.6073153350419438e-07
x[120] 1
x[121] 1.5104406052035840e-07
x[122] 0
x[123] 0
x[124] 7.1954829320526187e-08
x[125] 1
x[126] 1
x[127] 0
x[128] 9.9999985215978349e-01
x[129] 0
x[130] 0
x[131] 1
x[132] -1.1609794059731840e-07
x[133] 0
x[134] 0
x[135] 1
x[136] 1.0000002515538444e+00
x[137] 1
x[138] 1
x[139] 1
x[140] 0
x[141] 1.0107125478905158e-07
x[142] 1
x[143] 1
x[144] 1
x[145] -2.4575318981843884e-08
x[146] 9.9999984882644943e-01
x[147] 1.0000004027378173e+00
x[148] 9.9999999999999956e-01
x[149] 0
x[150] 1.0000001511414411e+00
x[151] 1
x[152] 0
x[153] 0
x[154] 1
x[155] 1
x[156] 1
x[157] 1
x[158] 1
x[159] 0
x[160] 2.6088769518697168e-07
x[161] 1
x[162] 1
x[163] 1
x[164] 1
x[165] 0
x[166] 1
x[167] 1
x[168] 1
x[169] 1
x[170] 0
x[171] 0
x[172] 0
x[173] 1
x[174] 9.9999964628949578e-01
x[175] 0
x[176] 9.9999990378518455e-01
x[177] 1
x[178] 1
x[179] 1.0107145008862388e-07
x[180] 1
x[181] 1
x[182] 0
x[183] 0
x[184] 1
x[185] 0.999999738997406
x[186] 1.0114682235746728e-07
x[187] 0
x[188] 0
x[189] 1
x[190] 9.9999974233073874e-01
x[191] 0
x[192] 9.9999989878518414e-01
x[193] 1
x[194] 0
x[195] 9.9999974252028745e-01
x[196] 1
x[197] 1
x[198] 0
x[199] 1
x[200] 0
x[201] 1
x[202] 0
x[203] 0
x[204] 1
x[205] 1
x[206] 1
x[207] 1
x[208] 2.6088271136503793e-07
x[209] 0
x[210] 0
x[211] 1.0000000791264743e+00
x[212] 0
x[213] 0
x[214] 9.9999984882644966e-01
x[215] 1.0000003006235989e+00
x[216] 1
x[217] 1
x[218] 2.6093592127354731e-07
x[219] 1
x[220] 1.2139875476213671e-07
x[221] 9.9999959847407338e-01
x[222] 1.0000001597546231e+00
x[223] 9.9999999999999956e-01
x[224] 0
x[225] 1
x[226] 1
x[227] 9.9999989878518458e-01
x[228] 0
x[229] 0
x[230] 0
x[231] 0
x[232] 1
x[233] 1
x[234] 1
x[235] 0
x[236] 0
x[237] 0
x[238] 0
x[239] 9.9999989878518414e-01
x[240] 0
x[241] 1
x[242] 0
x[243] 9.9999974233073874e-01
x[244] 0
x[245] 1.51114279231994e-07
x[246] 1
x[247] 1.0000000489692966e+00
x[248] 2.6087613679625846e-07
x[249] 1
x[250] 1
x[251] 1
x[252] 1.5111217251182331e-07
x[253] 0
x[254] -7.5831400548505576e-08
x[255] 2.6095457504095303e-07
x[256] 1
x[257] 1.2141539993938754e-07
x[258] 0
x[259] 0
x[260] -4.0233073944453375e-07
x[261] 1
x[262] 1
x[263] 0
x[264] 1
x[265] 1
x[266] 1
x[267] 0
x[268] 1
x[269] 9.9999973899740535e-01
x[270] 0
x[271] -1.5978777812009071e-07
x[272] 1
x[273] 0
x[274] 1
x[275] 0
x[276] 0
x[277] 9.9999974211090470e-01
x[278] 1.0000000790196368e+00
x[279] 1
x[280] 0
x[281] 0
x[282] 1.0000005258318272e+00
x[283] 1
x[284] 0
x[285] 9.9999992799118320e-01
x[286] 0
x[287] 2.6096760788537076e-07
x[288] 0
x[289] 0
x[290] 0
x[291] 1
x[292] 2.6094000081407744e-07
x[293] 1
x[294] 0
x[295] 1
x[296] 0
x[297] 2.6096032871581817e-07
x[298] 0
x[299] 1.0000000791248007e+00
x[300] 1
x[301] 1
x[302] 0
x[303] 9.9999948299481123e-01
x[304] 1
x[305] 0
x[306] 0
x[307] 1
x[308] 2.6095970848782758e-07
x[309] 9.9999993927111064e-01
x[310] 1
x[311] 1.0000000498921420e+00
x[312] 1.0000002514860196e+00
x[313] 1.0000001682849038e+00
x[314] 0
x[315] 1
x[316] 1.0000000791246595e+00
x[317] 1
x[318] 0
x[319] 0
x[320] 1
x[321] 0
x[322] 0
x[323] 0
x[324] 1
x[325] 1
x[326] 1
x[327] 1
x[328] 1
x[329] 0
x[330] 0
x[331] 1
x[332] 0
x[333] 1.0114378138380960e-07
x[334] 1
x[335] 0
x[336] 1
x[337] 0
x[338] 1.0000000790619408e+00
x[339] 0
x[340] 0
x[341] 1
x[342] 2.6068795780031547e-07
x[343] 0
x[344] 1.0000001682823985e+00
x[345] 0
x[346] 1
x[347] 0
x[348] -7.5831400566944239e-08
x[349] 1
x[350] 1
x[351] 1
x[352] 2.6097210492513690e-07
x[353] 0
x[354] 1
x[355] 1
x[356] 1
x[357] 1
x[358] 1
x[359] 1
x[360] -1.6675033095657161e-07
x[361] 1
x[362] 0
x[363] 9.9999948132814465e-01
x[364] -4.1933206684774404e-08
x[365] 9.9999974233073907e-01
x[366] 1
x[367] 1
x[368] 1
x[369] 0
x[370] 0
x[371] 1
x[372] 1
x[373] 0
x[374] 1.0000000790979779e+00
x[375] 0
x[376] 0
x[377] 0
x[378] 0
x[379] 0
x[380] 0
x[381] 0
x[382] 1.2139590442617185e-07
x[383] 1
x[384] -7.4225680090531010e-08
x[385] 1
x[386] 1
x[387] 1
x[388] 1
x[389] 1
x[390] 1
x[391] 0
x[392] -1.6831614924051053e-07
x[393] 0
x[394] 0
x[395] 0
x[396] 1.0000000791191954e+00
x[397] -3.0069451977939706e-07
x[398] 1.0000000782365523e+00
x[399] 0
x[400] 1
x[401] -2.0966603348894766e-07
x[402] 1
x[403] 1.0000001597312929e+00
x[404] 0
x[405] 0
x[406] 9.9999987342178609e-01
x[407] 1
x[408] 0
x[409] 1
x[410] 1
x[411] 1
x[412] 1
x[413] 0
x[414] 9.9999973899740546e-01
x[415] 0
x[416] 1
x[417] 0
x[418] 1
x[419] 1.8132342370148110e-07
x[420] 0
x[421] 9.9999974233073885e-01
x[422] 9.9999999999999989e-01
x[423] 2.6071478722633632e-07
x[424] 1
x[425] 9.9999948299481067e-01
x[426] 1
x[427] 1
x[428] 0
x[429] 1
x[430] 9.9999980090370266e-01
x[431] 0
x[432] 0
x[433] 0
x[434] 1.0112942058131098e-07
x[435] 1
x[436] 0
x[437] 0
x[438] 9.9999995951407350e-01
x[439] 1
x[440] 0
x[441] 1
x[442] 0
x[443] 0
x[444] 9.9999988191793343e-01
x[445] 2.0238878064556677e-07
x[446] 0
x[447] 2.6094403031071150e-07
x[448] 9.9999989878518414e-01
x[449] -5.45137842275403e-07
x[450] 2.0221531138061029e-07
x[451] 1
x[452] 1
x[453] 0
x[454] 1
x[455] 1
x[456] -5.20990120559241e-07
x[457] 1
x[458] 0
x[459] 1
x[460] 1
x[461] 1.6880847212375514e-07
x[462] 1
x[463] 1
x[464] 1
x[465] 0
x[466] 0
x[467] 1
x[468] 1
x[469] 1
x[470] 0
x[471] 1
x[472] 1
x[473] 0
x[474] 9.9999973899740535e-01
x[475] 0
x[476] 1
x[477] 0
x[478] 0
x[479] 1
x[480] 1
x[481] 1
x[482] 1
x[483] 1
x[484] 1
x[485] 0
x[486] -1.5978777812678783e-07
x[487] 1
x[488] -3.9777279045319858e-07
x[489] 1
x[490] -7.9164734253548416e-08
x[491] 1
x[492] 0
x[493] 0
x[494] 0
x[495] 1
x[496] 1
x[497] 1
x[498] 0
x[499] 1
x[500] -1.6338341894546726e-07
x[501] 1.0000001594480190e+00
x[502] 0
x[503] -2.0283203716608961e-07
x[504] -1.5117354948428940e-07
x[505] 0
x[506] 0
x[507] 1
x[508] 0
x[509] 0
x[510] 0
x[511] 1
x[512] 0
x[513] 1
x[514] 0
x[515] 1
x[516] 0
x[517] 0
x[518] 1.0000001595969121e+00
x[519] 1.0000001582796372e+00
x[520] 0
x[521] 0
x[522] 0
x[523] -7.9164733900277616e-08
x[524] 0
x[525] 1.0000000790987102e+00
x[526] 1
x[527] 0
x[528] 0
x[529] 1
x[530] 1
x[531] 2.4287119533953564e-07
x[532] 1
x[533] 1
x[534] 1
x[535] 1
x[536] 0
x[537] 0
x[538] 1.0000004026762679e+00
x[539] 1
x[540] 1
x[541] 0
x[542] 0
x[543] 1
x[544] 1
x[545] 1
x[546] 1
x[547] 0
x[548] 1.0114866015201948e-07
x[549] 1
x[550] -1.5645444478675737e-07
x[551] 0
x[552] 1
x[553] 0
x[554] 0
x[555] 0
x[556] 0
x[557] 0
x[558] 0
x[559] 1
x[560] 1.5109901591897526e-07
x[561] 0
x[562] 0
x[563] 1
x[564] 1
x[565] 1
x[566] 1
x[567] 1
x[568] 0
x[569] 1.0000000791302819e+00
x[570] 1
x[571] 2.6092760292586803e-07
x[572] 1
x[573] 0
x[574] 1
x[575] 0
x[576] 9.9999984882645010e-01
x[577] 9.9999985763494825e-01
x[578] 1
x[579] 1
x[580] 0
x[581] 1
x[582] 0
x[583] 0
x[584] 0
x[585] -7.4164733879366617e-08
x[586] 1
x[587] -7.9164733435277412e-08
x[588] 1
x[589] 1
x[590] 0
x[591] -1.5747158678892985e-07
x[592] 0
x[593] 1
x[594] 1
x[595] 0
x[596] 2.9347850697353667e-07
x[597] 0
x[598] 1
x[599] 1
x[600] 1
x[601] 1.5112497563037969e-07
x[602] 1.0000000418901780e+00
x[603] 1
x[604] 1
x[605] 0
x[606] 9.9999989878518469e-01
x[607] 1
x[608] 2.6096104582782204e-07
x[609] -4.9958734038568764e-08
x[610] 1.0118454489553992e-07
x[611] 1
x[612] 1
x[613] 1
x[614] 0
x[615] 0
x[616] 9.9999985763494825e-01
x[617] 1
x[618] 1.0113609402616438e-07
x[619] -4.9958734038568764e-08
x[620] 1
x[621] 2.0217550081116521e-07
x[622] 0
x[623] 0
x[624] 1
x[625] 2.0237140063093285e-07
x[626] 1.0000002028017643e+00
x[627] 0
x[628] 9.9999973899740546e-01
x[629] 0
x[630] 1
x[631] 0
x[632] 0
x[633] 1
x[634] 1
x[635] 1
x[636] 0
x[637] 9.9999985382645007e-01
x[638] -4.0277279045319858e-07
x[639] 1
x[640] 1
x[641] 2.6086448889521165e-07
x[642] 9.9999989878518414e-01
x[643] 0
x[644] 0
x[645] 0
x[646] 0
x[647] 1
x[648] 0
x[649] 1
x[650] 0
x[651] 1
x[652] 1
x[653] 0
x[654] 0
x[655] -2.4662526890082941e-07
x[656] 0
x[657] 1.0053220552068838e-07
x[658] 1
x[659] 0
x[660] 0
x[661] 1
x[662] 9.9999984882645010e-01
x[663] 1
x[664] 2.6081895931231371e-07
x[665] 0
x[666] 0
x[667] 0
x[668] 1
x[669] 1
x[670] 0
x[671] 0
x[672] 0
x[673] 0
x[674] 2.6092359838614481e-07
x[675] 0
x[676] 1
x[677] 0
x[678] 0
x[679] 1
x[680] 1.0000000790397778e+00
x[681] 1
x[682] 0
x[683] 1
x[684] 9.9999974162568750e-01
x[685] 0
x[686] 9.9999984882644977e-01
x[687] 0
x[688] 0
x[689] 1
x[690] 1
x[691] 0
x[692] 0
x[693] 0
x[694] -1.5642128973209398e-07
x[695] 0
x[696] 0
x[697] 1
x[698] 2.6095049805249134e-07
x[699] 1
x[700] 1.0000002013218106e+00
x[701] 1
x[702] 1
x[703] 0
x[704] 1
x[705] 1
x[706] 0
x[707] 0
x[708] 3.2716012033986835e-07
x[709] -1.6831614924051053e-07
x[710] 1.5110281597511716e-07
x[711] 1
x[712] 0
x[713] 1
x[714] 0
x[715] 1.0000001290385174e+00
x[716] 1
x[717] 0
x[718] 2.6089118448502468e-07
x[719] 0
x[720] 0
x[721] 1.5097510096125016e-07
x[722] 9.9999974236572542e-01
x[723] 9.9999974233073874e-01
x[724] 1
x[725] 3.2697876094952937e-07
x[726] 0
x[727] 0
x[728] 9.9999980246934883e-01
x[729] -2.0138639526325168e-07
x[730] 1.0000002515601918e+00
x[731] 1.0000000791182637e+00
x[732] 1
x[733] 1
x[734] 1
x[735] 9.9999967279280133e-01
x[736] 2.6089552331567359e-07
x[737] 1
x[738] 1
x[739] 1.0116194790416301e-07
x[740] 0
x[741] 0
x[742] 1
x[743] 0
x[744] 0
x[745] 9.9999988187555466e-01
x[746] 9.9999974404059411e-01
x[747] 0
x[748] -4.9958734236332653e-08
x[749] 0
x[750] 0
x[751] 1
x[752] 1
x[753] 0
x[754] 0
x[755] 0
x[756] 0
x[757] 0
x[758] 2.6095999708721434e-07
x[759] 9.9999970184481235e-01
x[760] 9.9999979757036950e-01
x[761] 9.9999974399740532e-01
x[762] 1
x[763] 5.2194618451124491e-07
x[764] 0
x[765] 0
x[766] 1
x[767] 1
x[768] 1
x[769] 1
x[770] 0
x[771] 0
x[772] 1
x[773] 0
x[774] 0
x[775] 1
x[776] 0
x[777] 9.9999973899740635e-01
x[778] 1.0000000914174847e+00
x[779] 9.9999989878518458e-01
x[780] 0
x[781] 0
x[782] 9.9999973899740546e-01
x[783] 1
x[784] -1.5793483080411581e-07
x[785] 0
x[786] 1
x[787] 1
x[788] 0
x[789] 0
x[790] 9.9999974233073941e-01
x[791] 1
x[792] 1
x[793] 1
x[794] 0
x[795] 1
x[796] 0
x[797] 0
x[798] 0
x[799] 1
x[800] 1
x[801] 2.6091791736677278e-07
x[802] 1.5113864978166129e-07
x[803] 9.9999987283203584e-01
x[804] 1
x[805] 1
x[806] -2.4826590677531309e-07
x[807] 1
x[808] 1
x[809] 1
x[810] 1
x[811] 0
x[812] 0
x[813] 0
x[814] 1
x[815] 9.9999967279280144e-01
x[816] 1
x[817] 1
x[818] 9.9999974244214884e-01
x[819] 1
x[820] 0
x[821] 0
x[822] 2.6095429344538393e-07
x[823] 1
x[824] -7.9164733435277412e-08
x[825] -7.4164733435277407e-08
x[826] 0
x[827] 0
x[828] 1
x[829] 1.0000000781380605e+00
x[830] 0
x[831] 0
x[832] 0
x[833] 0
x[834] -1.9949870383275633e-07
x[835] 1
x[836] 1
x[837] 0
x[838] 1
x[839] 2.6095451023023543e-07
x[840] 1.0000001597415005e+00
x[841] 1.5107604858639870e-07
x[842] 1.0086691222263925e-07
x[843] 1
x[844] 0
x[845] 1.0000001510158738e+00
x[846] 0
x[847] -7.91647339234175e-08
x[848] 0
x[849] 1
x[850] 2.6095155367685787e-07
x[851] 0
x[852] 1
x[853] 1
x[854] 9.9999985382645007e-01
x[855] 1.0000002027881822e+00
x[856] 0
x[857] -7.9164733879366622e-08
x[858] 1.0000002850204313e+00
x[859] 1
x[860] 1
x[861] 0
x[862] 0
x[863] 9.9999999814705320e-01
x[864] 1
x[865] 1
x[866] 3.70592392405447e-07
x[867] 0
x[868] 1
x[869] 1
x[870] 0
x[871] 3.5022081172687439e-07
x[872] 0
x[873] 1
x[874] 2.0217633651376730e-07
x[875] 2.0217411118681508e-07
x[876] 1
x[877] 0
x[878] 1
x[879] 1
x[880] 9.9999993379539609e-01
x[881] 0
x[882] -7.9164733822342260e-08
x[883] 0
x[884] 0
x[885] 2.6094848945280729e-07
x[886] 0
x[887] 0
x[888] 1
x[889] 1
x[890] 1
x[891] 0
x[892] 0
x[893] 1.0114134021819064e-07
x[894] 0
x[895] 0
x[896] 0
x[897] 0
x[898] 0
x[899] 0
x[900] 1
x[901] 4.0430348000189574e-08
x[902] 1
x[903] 1.5114356831353077e-07
x[904] 0
x[905] 1.0000002013102878e+00
x[906] 0
x[907] 2.6095647756923336e-07
x[908] 9.9999963778259038e-01
x[909] 1
x[910] 0
x[911] 0
x[912] 1
x[913] 1
x[914] 0
x[915] 0
x[916] 0
x[917] 1
x[918] 0
x[919] 1
x[920] 1
x[921] 0
x[922] 1
x[923] -2.0138639526325168e-07
x[924] 1.0000001700409138e+00
x[925] 0
x[926] 0
x[927] 1
x[928] 0
x[929] 9.9999974393898239e-01
x[930] 0
x[931] 7.2146256040819992e-08
x[932] 9.9999973899740491e-01
x[933] 1
x[934] 1
x[935] 1
x[936] 9.9999990219199308e-01
x[937] 2.6096657977394461e-07
x[938] 0
x[939] 0
x[940] 1
x[941] 1
x[942] 0
x[943] -7.5586775155742815e-08
x[944] 1
x[945] 1
x[946] 1
x[947] 1.0000001700220542e+00
x[948] 6.0294576695633914e-07
x[949] 1
x[950] 1
x[951] 1.0116802149824365e-07
x[952] 0
x[953] 1
x[954] 1
x[955] 0
x[956] 0
x[957] 1
x[958] 0
x[959] 0
x[960] 0
x[961] 0
x[962] 0
x[963] 1
x[964] 1
x[965] 1
x[966] 1
x[967] 1
x[968] 1
x[969] 0
x[970] 1
x[971] 0
x[972] 9.9999985222116083e-01
x[973] 1
x[974] 1
x[975] 1
x[976] 1.5113481463783028e-07
x[977] 0
x[978] 1
x[979] 0
x[980] 1
x[981] 0
x[982] 1
x[983] 0
x[984] 0
x[985] 1
x[986] 1
x[987] 0
x[988] 0
x[989] 0
x[990] 9.9999974397137659e-01
x[991] 0
x[992] 1
x[993] 1
x[994] 1
x[995] 0
x[996] 0
x[997] 0
x[998] 0
x[999] 0
